NAME : XML100_3161_09
DIMENSION : 101
NB_CLUSTERS : 28
CLUSTERING_ALG : KMeans
CLUSTERING_PARAMS : k(33)
CLUSTERS
1 0
2 5 14 80 100
3 65 71 74 87 95
4 8 22 42 43 76 96
5 6 19 28 46 70 77 86
6 17 20 44 62 92
7 7 12 21 23 90
8 4 34 59
9 54 58
10 37 47 88
11 18 81 93
12 27 55 94
13 9 35 45
14 3 30 49 51 83 97
15 36 73
16 32 57 72 84
17 13 15 25 26 41 61 67 69 78
18 11 31 38 85
19 40 52 98
20 33 56 99
21 1 50 66
22 79 89
23 2 10 16 29
24 63 91
25 60 75
26 53 68 82
27 24 39
28 48 64
EOF